10868       10816
10494       10422
10922       10886
10889       10794
10524       10437
10331       10255
10857       10761
10731       10663
10438       10348
10676       106168 95 52 77 60 12 74 86  9 89 24 93 71 52 88 28 53 23 48 73 42  7 87  8 95 31 68 49 82 58 92 47 83 91  7 61 49 65 65 90 59 94 97 61 63 83 54  5 10  4 12 50 21 51 90 52 37 94 77 48 25  8 75 14 11 20 58 97 29 53 53 11 97 91 42 19 86 68 24 21  7 31 57  6 90 26  4 97  4 14 22 21 22 38 64 54 15 47 88 58 53 93  4 83 39 50 36 75 35 86 36 71 43 46 48 16 91 45 31 53  8 15 10 46 37 87 25 96 21 99 67 23 16  5 50 40  5 67
